problem_generation/data/GISP/train/er_n=62_m=1137_p=0.60_SET2_setparam=100.00_alpha=0.50_308.lp
maximize
OBJ:100x0 + 100x1 + 100x2 + 100x3 + 100x4 + 100x5 + 100x6 + 100x7 + 100x8 + 100x9 + 100x10 + 100x11 + 100x12 + 100x13 + 100x14 + 100x15 + 100x16 + 100x17 + 100x18 + 100x19 + 100x20 + 100x21 + 100x22 + 100x23 + 100x24 + 100x25 + 100x26 + 100x27 + 100x28 + 100x29 + 100x30 + 100x31 + 100x32 + 100x33 + 100x34 + 100x35 + 100x36 + 100x37 + 100x38 + 100x39 + 100x40 + 100x41 + 100x42 + 100x43 + 100x44 + 100x45 + 100x46 + 100x47 + 100x48 + 100x49 + 100x50 + 100x51 + 100x52 + 100x53 + 100x54 + 100x55 + 100x56 + 100x57 + 100x58 + 100x59 + 100x60 + 100x61 - y7_17 - y26_30 - y18_26 - y29_32 - y18_44 - y0_5 - y29_41 - y48_54 - y29_50 - y40_50 - y0_23 - y40_59 - y21_55 - y33_38 - y44_56 - y3_24 - y14_24 - y32_60 - y14_33 - y3_42 - y14_51 - y15_16 - y17_44 - y18_21 - y36_57 - y47_57 - y48_49 - y21_41 - y21_50 - y21_59 - y10_22 - y10_31 - y25_29 - y2_36 - y2_54 - y35_60 - y14_37 - y55_56 - y47_52 - y9_44 - y28_57 - y6_38 - y21_36 - y29_49 - y10_17 - y10_35 - y33_37 - y10_44 - y2_40 - y25_42 - y2_49 - y43_50 - y22_27 - y13_46 - y24_46 - y3_23 - y16_60 - y17_25 - y7_11 - y55_60 - y28_52 - y6_15 - y17_61 - y6_24 - y9_57 - y2_8 - y20_53 - y31_53 - y10_39 - y12_58 - y3_9 - y43_45 - y35_41 - y32_54 - y43_54 - y1_48 - y35_50 - y16_46 - y1_57 - y35_59 - y16_55 - y17_20 - y28_38 - y47_51 - y28_47 - y9_43 - y6_28 - y29_30 - y9_61 - y27_60 - y6_37 - y39_43 - y20_39 - y2_12 - y20_48 - y10_25 - y31_48 - y39_61 - y31_57 - y32_40 - y32_58 - y16_41 - y9_11 - y16_59 - y5_31 - y3_47 - y9_29 - y5_40 - y28_42 - y8_51 - y30_60 - y39_47 - y2_7 - y12_39 - y23_48 - y20_61 - y4_44 - y31_61 - y4_53 - y13_49 - y24_49 - y5_8 - y1_56 - y5_17 - y38_51 - y49_51 - y17_28 - y9_24 - y38_60 - y6_9 - y42_48 - y12_25 - y20_38 - y31_38 - y39_51 - y2_11 - y31_47 - y23_43 - y31_56 - y4_48 - y13_26 - y16_22 - y1_33 - y1_42 - y1_51 - y46_50 - y5_21 - y9_19 - y5_30 - y5_39 - y27_36 - y8_32 - y30_41 - y50_56 - y0_37 - y11_37 - y19_50 - y0_46 - y11_46 - y8_59 - y31_33 - y31_51 - y1_10 - y1_19 - y24_30 - y16_26 - y37_58 - y1_46 - y5_7 - y38_41 - y5_16 - y9_14 - y38_50 - y5_25 - y7_44 - y15_57 - y49_59 - y18_53 - y27_31 - y30_36 - y50_51 - y0_32 - y8_45 - y19_45 - y30_45 - y30_54 - y0_50 - y4_11 - y39_41 - y52_60 - y23_33 - y23_42 - y4_47 - y34_48 - y45_48 - y53_61 - y56_57 - y1_32 - y3_51 - y15_34 - y26_34 - y15_43 - y46_58 - y18_39 - y49_54 - y7_48 - y18_48 - y15_61 - y18_57 - y8_22 - y27_35 - y0_18 - y8_31 - y19_31 - y30_40 - y19_49 - y11_45 - y30_58 - y12_19 - y20_32 - y12_28 - y4_33 - y53_56 - y34_52 - y3_46 - y45_61 - y15_20 - y15_29 - y26_29 - y5_6 - y7_25 - y15_38 - y38_40 - y0_13 - y7_61 - y8_26 - y18_61 - y19_26 - y0_22 - y30_35 - y8_44 - y19_44 - y41_50 - y4_10 - y33_46 - y44_46 - y3_32 - y34_47 - y3_41 - y37_43 - y3_50 - y37_52 - y7_20 - y7_29 - y15_42 - y18_38 - y8_12 - y19_21 - y40_53 - y19_30 - y11_26 - y0_35 - y4_5 - y52_54 - y25_37 - y4_14 - y10_57 - y25_55 - y34_42 - y14_36 - y37_38 - y34_51 - y3_45 - y14_45 - y22_58 - y7_24 - y7_33 - y18_42 - y0_3 - y48_52 - y48_61 - y44_45 - y25_41 - y33_54 - y25_50 - y3_13 - y22_26 - y22_35 - y34_37 - y22_44 - y3_40 - y14_40 - y22_53 - y37_42 - y7_10 - y7_19 - y18_19 - y47_55 - y17_51 - y29_34 - y8_11 - y40_43 - y11_16 - y29_52 - y40_52 - y6_59 - y33_40 - y25_36 - y33_49 - y3_8 - y10_56 - y51_57 - y3_17 - y2_61 - y22_39 - y3_44 - y17_46 - y7_23 - y18_23 - y36_59 - y59_61 - y21_25 - y29_38 - y21_34 - y29_47 - y21_43 - y10_24 - y54_58 - y25_40 - y51_52 - y51_61 - y2_56 - y17_32 - y28_32 - y7_9 - y36_45 - y9_37 - y17_50 - y9_46 - y5_57 - y17_59 - y29_33 - y29_42 - y40_42 - y40_51 - y6_58 - y10_28 - y20_60 - y31_60 - y10_37 - y32_34 - y32_43 - y35_39 - y43_61 - y16_44 - y1_55 - y24_57 - y35_57 - y16_53 - y36_49 - y9_41 - y6_17 - y10_14 - y31_46 - y2_19 - y12_51 - y23_51 - y2_37 - y3_11 - y13_43 - y32_56 - y43_56 - y24_52 - y16_48 - y1_59 - y9_18 - y36_44 - y9_27 - y5_38 - y3_56 - y6_21 - y9_54 - y50_55 - y21_28 - y19_58 - y39_45 - y20_41 - y10_18 - y39_54 - y20_50 - y2_23 - y54_61 - y4_51 - y32_33 - y24_29 - y32_42 - y13_38 - y35_38 - y24_47 - y13_56 - y16_52 - y16_61 - y5_24 - y5_33 - y9_31 - y28_44 - y19_53 - y20_27 - y12_32 - y23_32 - y2_9 - y20_45 - y13_15 - y12_59 - y13_24 - y4_55 - y13_33 - y32_46 - y16_29 - y43_46 - y1_49 - y35_51 - y38_44 - y5_19 - y17_21 - y46_57 - y9_17 - y26_60 - y27_34 - y6_20 - y30_39 - y30_48 - y8_57 - y23_27 - y31_40 - y20_58 - y31_58 - y23_54 - y1_17 - y53_55 - y1_26 - y13_28 - y4_59 - y56_60 - y16_33 - y38_48 - y15_55 - y38_57 - y7_51 - y8_25 - y8_34 - y27_47 - y19_43 - y27_56 - y0_48 - y8_61 - y20_44 - y1_3 - y13_14 - y1_21 - y13_23 - y53_59 - y45_55 - y1_30 - y37_51 - y16_28 - y37_60 - y15_41 - y26_41 - y38_43 - y18_46 - y15_59 - y49_61 - y18_55 - y19_20 - y27_42 - y19_38 - y30_38 - y30_47 - y42_49 - y0_43 - y11_43 - y19_56 - y11_52 - y20_30 - y0_61 - y33_58 - y23_35 - y23_44 - y13_18 - y22_48 - y34_59 - y56_59 - y15_27 - y46_51 - y7_32 - y18_32 - y15_45 - y26_45 - y7_41 - y49_56 - y0_11 - y7_59 - y18_59 - y19_24 - y0_20 - y19_33 - y30_33 - y27_46 - y0_29 - y0_38 - y11_47 - y41_48 - y60_61 - y52_57 - y44_53 - y23_30 - y25_49 - y4_26 - y4_35 - y34_36 - y22_43 - y1_20 - y3_39 - y37_41 - y3_48 - y37_59 - y7_18 - y26_31 - y15_40 - y18_36 - y15_49 - y7_54 - y8_19 - y0_15 - y11_15 - y8_28 - y40_60 - y21_56 - y12_16 - y41_61 - y2_60 - y34_40 - y3_34 - y34_49 - y14_43 - y37_45 - y45_58 - y56_58 - y7_13 - y3_61 - y7_22 - y18_22 - y15_35 - y26_44 - y0_1 - y48_50 - y0_10 - y6_53 - y11_19 - y30_32 - y40_55 - y0_28 - y11_28 - y4_7 - y25_39 - y44_52 - y25_48 - y10_59 - y2_55 - y3_20 - y14_20 - y34_44 - y37_40 - y14_47 - y14_56
 Subject to
C1: x0+x1-y0_1 <=1 
C2: x0+x3-y0_3 <=1 
C3: x0+x5-y0_5 <=1 
C4: x0+x6 <=1 
C5: x0+x10-y0_10 <=1 
C6: x0+x11-y0_11 <=1 
C7: x0+x12 <=1 
C8: x0+x13-y0_13 <=1 
C9: x0+x14 <=1 
C10: x0+x15-y0_15 <=1 
C11: x0+x18-y0_18 <=1 
C12: x0+x20-y0_20 <=1 
C13: x0+x22-y0_22 <=1 
C14: x0+x23-y0_23 <=1 
C15: x0+x24 <=1 
C16: x0+x25 <=1 
C17: x0+x27 <=1 
C18: x0+x28-y0_28 <=1 
C19: x0+x29-y0_29 <=1 
C20: x0+x31 <=1 
C21: x0+x32-y0_32 <=1 
C22: x0+x33 <=1 
C23: x0+x35-y0_35 <=1 
C24: x0+x36 <=1 
C25: x0+x37-y0_37 <=1 
C26: x0+x38-y0_38 <=1 
C27: x0+x39 <=1 
C28: x0+x40 <=1 
C29: x0+x42 <=1 
C30: x0+x43-y0_43 <=1 
C31: x0+x46-y0_46 <=1 
C32: x0+x47 <=1 
C33: x0+x48-y0_48 <=1 
C34: x0+x50-y0_50 <=1 
C35: x0+x51 <=1 
C36: x0+x55 <=1 
C37: x0+x58 <=1 
C38: x0+x59 <=1 
C39: x0+x61-y0_61 <=1 
C40: x1+x3-y1_3 <=1 
C41: x1+x8 <=1 
C42: x1+x10-y1_10 <=1 
C43: x1+x14 <=1 
C44: x1+x15 <=1 
C45: x1+x16 <=1 
C46: x1+x17-y1_17 <=1 
C47: x1+x19-y1_19 <=1 
C48: x1+x20-y1_20 <=1 
C49: x1+x21-y1_21 <=1 
C50: x1+x22 <=1 
C51: x1+x24 <=1 
C52: x1+x26-y1_26 <=1 
C53: x1+x27 <=1 
C54: x1+x30-y1_30 <=1 
C55: x1+x31 <=1 
C56: x1+x32-y1_32 <=1 
C57: x1+x33-y1_33 <=1 
C58: x1+x34 <=1 
C59: x1+x37 <=1 
C60: x1+x38 <=1 
C61: x1+x42-y1_42 <=1 
C62: x1+x43 <=1 
C63: x1+x45 <=1 
C64: x1+x46-y1_46 <=1 
C65: x1+x48-y1_48 <=1 
C66: x1+x49-y1_49 <=1 
C67: x1+x51-y1_51 <=1 
C68: x1+x53 <=1 
C69: x1+x54 <=1 
C70: x1+x55-y1_55 <=1 
C71: x1+x56-y1_56 <=1 
C72: x1+x57-y1_57 <=1 
C73: x1+x59-y1_59 <=1 
C74: x1+x61 <=1 
C75: x2+x5 <=1 
C76: x2+x7-y2_7 <=1 
C77: x2+x8-y2_8 <=1 
C78: x2+x9-y2_9 <=1 
C79: x2+x10 <=1 
C80: x2+x11-y2_11 <=1 
C81: x2+x12-y2_12 <=1 
C82: x2+x13 <=1 
C83: x2+x16 <=1 
C84: x2+x17 <=1 
C85: x2+x18 <=1 
C86: x2+x19-y2_19 <=1 
C87: x2+x21 <=1 
C88: x2+x22 <=1 
C89: x2+x23-y2_23 <=1 
C90: x2+x24 <=1 
C91: x2+x25 <=1 
C92: x2+x26 <=1 
C93: x2+x28 <=1 
C94: x2+x29 <=1 
C95: x2+x33 <=1 
C96: x2+x35 <=1 
C97: x2+x36-y2_36 <=1 
C98: x2+x37-y2_37 <=1 
C99: x2+x40-y2_40 <=1 
C100: x2+x42 <=1 
C101: x2+x46 <=1 
C102: x2+x47 <=1 
C103: x2+x49-y2_49 <=1 
C104: x2+x54-y2_54 <=1 
C105: x2+x55-y2_55 <=1 
C106: x2+x56-y2_56 <=1 
C107: x2+x58 <=1 
C108: x2+x60-y2_60 <=1 
C109: x2+x61-y2_61 <=1 
C110: x3+x8-y3_8 <=1 
C111: x3+x9-y3_9 <=1 
C112: x3+x11-y3_11 <=1 
C113: x3+x12 <=1 
C114: x3+x13-y3_13 <=1 
C115: x3+x14 <=1 
C116: x3+x15 <=1 
C117: x3+x17-y3_17 <=1 
C118: x3+x18 <=1 
C119: x3+x19 <=1 
C120: x3+x20-y3_20 <=1 
C121: x3+x22 <=1 
C122: x3+x23-y3_23 <=1 
C123: x3+x24-y3_24 <=1 
C124: x3+x27 <=1 
C125: x3+x31 <=1 
C126: x3+x32-y3_32 <=1 
C127: x3+x34-y3_34 <=1 
C128: x3+x38 <=1 
C129: x3+x39-y3_39 <=1 
C130: x3+x40-y3_40 <=1 
C131: x3+x41-y3_41 <=1 
C132: x3+x42-y3_42 <=1 
C133: x3+x44-y3_44 <=1 
C134: x3+x45-y3_45 <=1 
C135: x3+x46-y3_46 <=1 
C136: x3+x47-y3_47 <=1 
C137: x3+x48-y3_48 <=1 
C138: x3+x50-y3_50 <=1 
C139: x3+x51-y3_51 <=1 
C140: x3+x52 <=1 
C141: x3+x53 <=1 
C142: x3+x54 <=1 
C143: x3+x56-y3_56 <=1 
C144: x3+x59 <=1 
C145: x3+x61-y3_61 <=1 
C146: x4+x5-y4_5 <=1 
C147: x4+x6 <=1 
C148: x4+x7-y4_7 <=1 
C149: x4+x9 <=1 
C150: x4+x10-y4_10 <=1 
C151: x4+x11-y4_11 <=1 
C152: x4+x14-y4_14 <=1 
C153: x4+x15 <=1 
C154: x4+x17 <=1 
C155: x4+x20 <=1 
C156: x4+x21 <=1 
C157: x4+x22 <=1 
C158: x4+x24 <=1 
C159: x4+x26-y4_26 <=1 
C160: x4+x28 <=1 
C161: x4+x29 <=1 
C162: x4+x33-y4_33 <=1 
C163: x4+x35-y4_35 <=1 
C164: x4+x36 <=1 
C165: x4+x37 <=1 
C166: x4+x43 <=1 
C167: x4+x44-y4_44 <=1 
C168: x4+x47-y4_47 <=1 
C169: x4+x48-y4_48 <=1 
C170: x4+x49 <=1 
C171: x4+x51-y4_51 <=1 
C172: x4+x52 <=1 
C173: x4+x53-y4_53 <=1 
C174: x4+x55-y4_55 <=1 
C175: x4+x59-y4_59 <=1 
C176: x5+x6-y5_6 <=1 
C177: x5+x7-y5_7 <=1 
C178: x5+x8-y5_8 <=1 
C179: x5+x9 <=1 
C180: x5+x13 <=1 
C181: x5+x16-y5_16 <=1 
C182: x5+x17-y5_17 <=1 
C183: x5+x19-y5_19 <=1 
C184: x5+x20 <=1 
C185: x5+x21-y5_21 <=1 
C186: x5+x22 <=1 
C187: x5+x23 <=1 
C188: x5+x24-y5_24 <=1 
C189: x5+x25-y5_25 <=1 
C190: x5+x26 <=1 
C191: x5+x29 <=1 
C192: x5+x30-y5_30 <=1 
C193: x5+x31-y5_31 <=1 
C194: x5+x32 <=1 
C195: x5+x33-y5_33 <=1 
C196: x5+x37 <=1 
C197: x5+x38-y5_38 <=1 
C198: x5+x39-y5_39 <=1 
C199: x5+x40-y5_40 <=1 
C200: x5+x41 <=1 
C201: x5+x42 <=1 
C202: x5+x43 <=1 
C203: x5+x52 <=1 
C204: x5+x57-y5_57 <=1 
C205: x5+x59 <=1 
C206: x5+x60 <=1 
C207: x5+x61 <=1 
C208: x6+x7 <=1 
C209: x6+x8 <=1 
C210: x6+x9-y6_9 <=1 
C211: x6+x12 <=1 
C212: x6+x14 <=1 
C213: x6+x15-y6_15 <=1 
C214: x6+x17-y6_17 <=1 
C215: x6+x18 <=1 
C216: x6+x20-y6_20 <=1 
C217: x6+x21-y6_21 <=1 
C218: x6+x22 <=1 
C219: x6+x24-y6_24 <=1 
C220: x6+x25 <=1 
C221: x6+x27 <=1 
C222: x6+x28-y6_28 <=1 
C223: x6+x30 <=1 
C224: x6+x32 <=1 
C225: x6+x33 <=1 
C226: x6+x35 <=1 
C227: x6+x37-y6_37 <=1 
C228: x6+x38-y6_38 <=1 
C229: x6+x41 <=1 
C230: x6+x43 <=1 
C231: x6+x52 <=1 
C232: x6+x53-y6_53 <=1 
C233: x6+x55 <=1 
C234: x6+x56 <=1 
C235: x6+x58-y6_58 <=1 
C236: x6+x59-y6_59 <=1 
C237: x6+x61 <=1 
C238: x7+x9-y7_9 <=1 
C239: x7+x10-y7_10 <=1 
C240: x7+x11-y7_11 <=1 
C241: x7+x12 <=1 
C242: x7+x13-y7_13 <=1 
C243: x7+x14 <=1 
C244: x7+x16 <=1 
C245: x7+x17-y7_17 <=1 
C246: x7+x18-y7_18 <=1 
C247: x7+x19-y7_19 <=1 
C248: x7+x20-y7_20 <=1 
C249: x7+x21 <=1 
C250: x7+x22-y7_22 <=1 
C251: x7+x23-y7_23 <=1 
C252: x7+x24-y7_24 <=1 
C253: x7+x25-y7_25 <=1 
C254: x7+x29-y7_29 <=1 
C255: x7+x30 <=1 
C256: x7+x32-y7_32 <=1 
C257: x7+x33-y7_33 <=1 
C258: x7+x34 <=1 
C259: x7+x38 <=1 
C260: x7+x39 <=1 
C261: x7+x41-y7_41 <=1 
C262: x7+x44-y7_44 <=1 
C263: x7+x45 <=1 
C264: x7+x47 <=1 
C265: x7+x48-y7_48 <=1 
C266: x7+x49 <=1 
C267: x7+x51-y7_51 <=1 
C268: x7+x54-y7_54 <=1 
C269: x7+x55 <=1 
C270: x7+x57 <=1 
C271: x7+x58 <=1 
C272: x7+x59-y7_59 <=1 
C273: x7+x60 <=1 
C274: x7+x61-y7_61 <=1 
C275: x8+x9 <=1 
C276: x8+x10 <=1 
C277: x8+x11-y8_11 <=1 
C278: x8+x12-y8_12 <=1 
C279: x8+x13 <=1 
C280: x8+x15 <=1 
C281: x8+x16 <=1 
C282: x8+x19-y8_19 <=1 
C283: x8+x21 <=1 
C284: x8+x22-y8_22 <=1 
C285: x8+x23 <=1 
C286: x8+x25-y8_25 <=1 
C287: x8+x26-y8_26 <=1 
C288: x8+x27 <=1 
C289: x8+x28-y8_28 <=1 
C290: x8+x31-y8_31 <=1 
C291: x8+x32-y8_32 <=1 
C292: x8+x33 <=1 
C293: x8+x34-y8_34 <=1 
C294: x8+x36 <=1 
C295: x8+x37 <=1 
C296: x8+x39 <=1 
C297: x8+x40 <=1 
C298: x8+x41 <=1 
C299: x8+x44-y8_44 <=1 
C300: x8+x45-y8_45 <=1 
C301: x8+x46 <=1 
C302: x8+x49 <=1 
C303: x8+x50 <=1 
C304: x8+x51-y8_51 <=1 
C305: x8+x52 <=1 
C306: x8+x54 <=1 
C307: x8+x55 <=1 
C308: x8+x57-y8_57 <=1 
C309: x8+x58 <=1 
C310: x8+x59-y8_59 <=1 
C311: x8+x60 <=1 
C312: x8+x61-y8_61 <=1 
C313: x9+x11-y9_11 <=1 
C314: x9+x13 <=1 
C315: x9+x14-y9_14 <=1 
C316: x9+x15 <=1 
C317: x9+x16 <=1 
C318: x9+x17-y9_17 <=1 
C319: x9+x18-y9_18 <=1 
C320: x9+x19-y9_19 <=1 
C321: x9+x20 <=1 
C322: x9+x21 <=1 
C323: x9+x23 <=1 
C324: x9+x24-y9_24 <=1 
C325: x9+x25 <=1 
C326: x9+x26 <=1 
C327: x9+x27-y9_27 <=1 
C328: x9+x29-y9_29 <=1 
C329: x9+x30 <=1 
C330: x9+x31-y9_31 <=1 
C331: x9+x32 <=1 
C332: x9+x37-y9_37 <=1 
C333: x9+x39 <=1 
C334: x9+x40 <=1 
C335: x9+x41-y9_41 <=1 
C336: x9+x42 <=1 
C337: x9+x43-y9_43 <=1 
C338: x9+x44-y9_44 <=1 
C339: x9+x46-y9_46 <=1 
C340: x9+x48 <=1 
C341: x9+x52 <=1 
C342: x9+x54-y9_54 <=1 
C343: x9+x55 <=1 
C344: x9+x57-y9_57 <=1 
C345: x9+x58 <=1 
C346: x9+x60 <=1 
C347: x9+x61-y9_61 <=1 
C348: x10+x12 <=1 
C349: x10+x14-y10_14 <=1 
C350: x10+x17-y10_17 <=1 
C351: x10+x18-y10_18 <=1 
C352: x10+x20 <=1 
C353: x10+x22-y10_22 <=1 
C354: x10+x24-y10_24 <=1 
C355: x10+x25-y10_25 <=1 
C356: x10+x27 <=1 
C357: x10+x28-y10_28 <=1 
C358: x10+x29 <=1 
C359: x10+x31-y10_31 <=1 
C360: x10+x32 <=1 
C361: x10+x33 <=1 
C362: x10+x35-y10_35 <=1 
C363: x10+x37-y10_37 <=1 
C364: x10+x39-y10_39 <=1 
C365: x10+x42 <=1 
C366: x10+x43 <=1 
C367: x10+x44-y10_44 <=1 
C368: x10+x47 <=1 
C369: x10+x48 <=1 
C370: x10+x49 <=1 
C371: x10+x50 <=1 
C372: x10+x52 <=1 
C373: x10+x55 <=1 
C374: x10+x56-y10_56 <=1 
C375: x10+x57-y10_57 <=1 
C376: x10+x58 <=1 
C377: x10+x59-y10_59 <=1 
C378: x10+x60 <=1 
C379: x10+x61 <=1 
C380: x11+x12 <=1 
C381: x11+x15-y11_15 <=1 
C382: x11+x16-y11_16 <=1 
C383: x11+x19-y11_19 <=1 
C384: x11+x24 <=1 
C385: x11+x26-y11_26 <=1 
C386: x11+x27 <=1 
C387: x11+x28-y11_28 <=1 
C388: x11+x29 <=1 
C389: x11+x31 <=1 
C390: x11+x35 <=1 
C391: x11+x37-y11_37 <=1 
C392: x11+x38 <=1 
C393: x11+x39 <=1 
C394: x11+x40 <=1 
C395: x11+x42 <=1 
C396: x11+x43-y11_43 <=1 
C397: x11+x45-y11_45 <=1 
C398: x11+x46-y11_46 <=1 
C399: x11+x47-y11_47 <=1 
C400: x11+x48 <=1 
C401: x11+x49 <=1 
C402: x11+x52-y11_52 <=1 
C403: x11+x55 <=1 
C404: x11+x58 <=1 
C405: x11+x59 <=1 
C406: x11+x61 <=1 
C407: x12+x16-y12_16 <=1 
C408: x12+x18 <=1 
C409: x12+x19-y12_19 <=1 
C410: x12+x25-y12_25 <=1 
C411: x12+x26 <=1 
C412: x12+x27 <=1 
C413: x12+x28-y12_28 <=1 
C414: x12+x29 <=1 
C415: x12+x31 <=1 
C416: x12+x32-y12_32 <=1 
C417: x12+x33 <=1 
C418: x12+x35 <=1 
C419: x12+x39-y12_39 <=1 
C420: x12+x41 <=1 
C421: x12+x44 <=1 
C422: x12+x48 <=1 
C423: x12+x50 <=1 
C424: x12+x51-y12_51 <=1 
C425: x12+x56 <=1 
C426: x12+x57 <=1 
C427: x12+x58-y12_58 <=1 
C428: x12+x59-y12_59 <=1 
C429: x12+x60 <=1 
C430: x13+x14-y13_14 <=1 
C431: x13+x15-y13_15 <=1 
C432: x13+x16 <=1 
C433: x13+x18-y13_18 <=1 
C434: x13+x19 <=1 
C435: x13+x23-y13_23 <=1 
C436: x13+x24-y13_24 <=1 
C437: x13+x25 <=1 
C438: x13+x26-y13_26 <=1 
C439: x13+x28-y13_28 <=1 
C440: x13+x29 <=1 
C441: x13+x33-y13_33 <=1 
C442: x13+x34 <=1 
C443: x13+x35 <=1 
C444: x13+x36 <=1 
C445: x13+x38-y13_38 <=1 
C446: x13+x39 <=1 
C447: x13+x42 <=1 
C448: x13+x43-y13_43 <=1 
C449: x13+x45 <=1 
C450: x13+x46-y13_46 <=1 
C451: x13+x49-y13_49 <=1 
C452: x13+x50 <=1 
C453: x13+x53 <=1 
C454: x13+x54 <=1 
C455: x13+x56-y13_56 <=1 
C456: x13+x57 <=1 
C457: x13+x61 <=1 
C458: x14+x17 <=1 
C459: x14+x18 <=1 
C460: x14+x20-y14_20 <=1 
C461: x14+x21 <=1 
C462: x14+x24-y14_24 <=1 
C463: x14+x25 <=1 
C464: x14+x26 <=1 
C465: x14+x27 <=1 
C466: x14+x28 <=1 
C467: x14+x29 <=1 
C468: x14+x30 <=1 
C469: x14+x33-y14_33 <=1 
C470: x14+x36-y14_36 <=1 
C471: x14+x37-y14_37 <=1 
C472: x14+x40-y14_40 <=1 
C473: x14+x43-y14_43 <=1 
C474: x14+x45-y14_45 <=1 
C475: x14+x47-y14_47 <=1 
C476: x14+x49 <=1 
C477: x14+x50 <=1 
C478: x14+x51-y14_51 <=1 
C479: x14+x52 <=1 
C480: x14+x54 <=1 
C481: x14+x56-y14_56 <=1 
C482: x14+x57 <=1 
C483: x15+x16-y15_16 <=1 
C484: x15+x18 <=1 
C485: x15+x19 <=1 
C486: x15+x20-y15_20 <=1 
C487: x15+x21 <=1 
C488: x15+x22 <=1 
C489: x15+x23 <=1 
C490: x15+x25 <=1 
C491: x15+x26 <=1 
C492: x15+x27-y15_27 <=1 
C493: x15+x29-y15_29 <=1 
C494: x15+x34-y15_34 <=1 
C495: x15+x35-y15_35 <=1 
C496: x15+x36 <=1 
C497: x15+x37 <=1 
C498: x15+x38-y15_38 <=1 
C499: x15+x39 <=1 
C500: x15+x40-y15_40 <=1 
C501: x15+x41-y15_41 <=1 
C502: x15+x42-y15_42 <=1 
C503: x15+x43-y15_43 <=1 
C504: x15+x44 <=1 
C505: x15+x45-y15_45 <=1 
C506: x15+x49-y15_49 <=1 
C507: x15+x50 <=1 
C508: x15+x52 <=1 
C509: x15+x53 <=1 
C510: x15+x54 <=1 
C511: x15+x55-y15_55 <=1 
C512: x15+x56 <=1 
C513: x15+x57-y15_57 <=1 
C514: x15+x59-y15_59 <=1 
C515: x15+x60 <=1 
C516: x15+x61-y15_61 <=1 
C517: x16+x17 <=1 
C518: x16+x18 <=1 
C519: x16+x22-y16_22 <=1 
C520: x16+x24 <=1 
C521: x16+x26-y16_26 <=1 
C522: x16+x28-y16_28 <=1 
C523: x16+x29-y16_29 <=1 
C524: x16+x30 <=1 
C525: x16+x31 <=1 
C526: x16+x32 <=1 
C527: x16+x33-y16_33 <=1 
C528: x16+x35 <=1 
C529: x16+x38 <=1 
C530: x16+x39 <=1 
C531: x16+x40 <=1 
C532: x16+x41-y16_41 <=1 
C533: x16+x43 <=1 
C534: x16+x44-y16_44 <=1 
C535: x16+x46-y16_46 <=1 
C536: x16+x47 <=1 
C537: x16+x48-y16_48 <=1 
C538: x16+x52-y16_52 <=1 
C539: x16+x53-y16_53 <=1 
C540: x16+x54 <=1 
C541: x16+x55-y16_55 <=1 
C542: x16+x58 <=1 
C543: x16+x59-y16_59 <=1 
C544: x16+x60-y16_60 <=1 
C545: x16+x61-y16_61 <=1 
C546: x17+x18 <=1 
C547: x17+x20-y17_20 <=1 
C548: x17+x21-y17_21 <=1 
C549: x17+x23 <=1 
C550: x17+x25-y17_25 <=1 
C551: x17+x27 <=1 
C552: x17+x28-y17_28 <=1 
C553: x17+x31 <=1 
C554: x17+x32-y17_32 <=1 
C555: x17+x38 <=1 
C556: x17+x39 <=1 
C557: x17+x41 <=1 
C558: x17+x43 <=1 
C559: x17+x44-y17_44 <=1 
C560: x17+x46-y17_46 <=1 
C561: x17+x47 <=1 
C562: x17+x48 <=1 
C563: x17+x50-y17_50 <=1 
C564: x17+x51-y17_51 <=1 
C565: x17+x53 <=1 
C566: x17+x58 <=1 
C567: x17+x59-y17_59 <=1 
C568: x17+x61-y17_61 <=1 
C569: x18+x19-y18_19 <=1 
C570: x18+x20 <=1 
C571: x18+x21-y18_21 <=1 
C572: x18+x22-y18_22 <=1 
C573: x18+x23-y18_23 <=1 
C574: x18+x24 <=1 
C575: x18+x26-y18_26 <=1 
C576: x18+x28 <=1 
C577: x18+x30 <=1 
C578: x18+x31 <=1 
C579: x18+x32-y18_32 <=1 
C580: x18+x35 <=1 
C581: x18+x36-y18_36 <=1 
C582: x18+x38-y18_38 <=1 
C583: x18+x39-y18_39 <=1 
C584: x18+x42-y18_42 <=1 
C585: x18+x43 <=1 
C586: x18+x44-y18_44 <=1 
C587: x18+x45 <=1 
C588: x18+x46-y18_46 <=1 
C589: x18+x48-y18_48 <=1 
C590: x18+x49 <=1 
C591: x18+x53-y18_53 <=1 
C592: x18+x54 <=1 
C593: x18+x55-y18_55 <=1 
C594: x18+x57-y18_57 <=1 
C595: x18+x59-y18_59 <=1 
C596: x18+x60 <=1 
C597: x18+x61-y18_61 <=1 
C598: x19+x20-y19_20 <=1 
C599: x19+x21-y19_21 <=1 
C600: x19+x23 <=1 
C601: x19+x24-y19_24 <=1 
C602: x19+x25 <=1 
C603: x19+x26-y19_26 <=1 
C604: x19+x30-y19_30 <=1 
C605: x19+x31-y19_31 <=1 
C606: x19+x33-y19_33 <=1 
C607: x19+x34 <=1 
C608: x19+x37 <=1 
C609: x19+x38-y19_38 <=1 
C610: x19+x43-y19_43 <=1 
C611: x19+x44-y19_44 <=1 
C612: x19+x45-y19_45 <=1 
C613: x19+x46 <=1 
C614: x19+x48 <=1 
C615: x19+x49-y19_49 <=1 
C616: x19+x50-y19_50 <=1 
C617: x19+x51 <=1 
C618: x19+x53-y19_53 <=1 
C619: x19+x54 <=1 
C620: x19+x56-y19_56 <=1 
C621: x19+x58-y19_58 <=1 
C622: x19+x60 <=1 
C623: x20+x22 <=1 
C624: x20+x23 <=1 
C625: x20+x24 <=1 
C626: x20+x25 <=1 
C627: x20+x26 <=1 
C628: x20+x27-y20_27 <=1 
C629: x20+x28 <=1 
C630: x20+x29 <=1 
C631: x20+x30-y20_30 <=1 
C632: x20+x32-y20_32 <=1 
C633: x20+x33 <=1 
C634: x20+x35 <=1 
C635: x20+x37 <=1 
C636: x20+x38-y20_38 <=1 
C637: x20+x39-y20_39 <=1 
C638: x20+x41-y20_41 <=1 
C639: x20+x42 <=1 
C640: x20+x43 <=1 
C641: x20+x44-y20_44 <=1 
C642: x20+x45-y20_45 <=1 
C643: x20+x47 <=1 
C644: x20+x48-y20_48 <=1 
C645: x20+x50-y20_50 <=1 
C646: x20+x52 <=1 
C647: x20+x53-y20_53 <=1 
C648: x20+x55 <=1 
C649: x20+x56 <=1 
C650: x20+x58-y20_58 <=1 
C651: x20+x59 <=1 
C652: x20+x60-y20_60 <=1 
C653: x20+x61-y20_61 <=1 
C654: x21+x22 <=1 
C655: x21+x23 <=1 
C656: x21+x24 <=1 
C657: x21+x25-y21_25 <=1 
C658: x21+x27 <=1 
C659: x21+x28-y21_28 <=1 
C660: x21+x32 <=1 
C661: x21+x34-y21_34 <=1 
C662: x21+x35 <=1 
C663: x21+x36-y21_36 <=1 
C664: x21+x39 <=1 
C665: x21+x41-y21_41 <=1 
C666: x21+x42 <=1 
C667: x21+x43-y21_43 <=1 
C668: x21+x44 <=1 
C669: x21+x47 <=1 
C670: x21+x49 <=1 
C671: x21+x50-y21_50 <=1 
C672: x21+x52 <=1 
C673: x21+x54 <=1 
C674: x21+x55-y21_55 <=1 
C675: x21+x56-y21_56 <=1 
C676: x21+x58 <=1 
C677: x21+x59-y21_59 <=1 
C678: x21+x60 <=1 
C679: x22+x26-y22_26 <=1 
C680: x22+x27-y22_27 <=1 
C681: x22+x29 <=1 
C682: x22+x30 <=1 
C683: x22+x34 <=1 
C684: x22+x35-y22_35 <=1 
C685: x22+x36 <=1 
C686: x22+x39-y22_39 <=1 
C687: x22+x40 <=1 
C688: x22+x43-y22_43 <=1 
C689: x22+x44-y22_44 <=1 
C690: x22+x45 <=1 
C691: x22+x47 <=1 
C692: x22+x48-y22_48 <=1 
C693: x22+x51 <=1 
C694: x22+x53-y22_53 <=1 
C695: x22+x54 <=1 
C696: x22+x58-y22_58 <=1 
C697: x22+x59 <=1 
C698: x23+x25 <=1 
C699: x23+x26 <=1 
C700: x23+x27-y23_27 <=1 
C701: x23+x28 <=1 
C702: x23+x30-y23_30 <=1 
C703: x23+x32-y23_32 <=1 
C704: x23+x33-y23_33 <=1 
C705: x23+x35-y23_35 <=1 
C706: x23+x37 <=1 
C707: x23+x42-y23_42 <=1 
C708: x23+x43-y23_43 <=1 
C709: x23+x44-y23_44 <=1 
C710: x23+x45 <=1 
C711: x23+x48-y23_48 <=1 
C712: x23+x51-y23_51 <=1 
C713: x23+x54-y23_54 <=1 
C714: x23+x56 <=1 
C715: x23+x60 <=1 
C716: x23+x61 <=1 
C717: x24+x27 <=1 
C718: x24+x28 <=1 
C719: x24+x29-y24_29 <=1 
C720: x24+x30-y24_30 <=1 
C721: x24+x34 <=1 
C722: x24+x42 <=1 
C723: x24+x44 <=1 
C724: x24+x45 <=1 
C725: x24+x46-y24_46 <=1 
C726: x24+x47-y24_47 <=1 
C727: x24+x49-y24_49 <=1 
C728: x24+x50 <=1 
C729: x24+x51 <=1 
C730: x24+x52-y24_52 <=1 
C731: x24+x55 <=1 
C732: x24+x56 <=1 
C733: x24+x57-y24_57 <=1 
C734: x24+x58 <=1 
C735: x24+x59 <=1 
C736: x25+x27 <=1 
C737: x25+x28 <=1 
C738: x25+x29-y25_29 <=1 
C739: x25+x31 <=1 
C740: x25+x35 <=1 
C741: x25+x36-y25_36 <=1 
C742: x25+x37-y25_37 <=1 
C743: x25+x39-y25_39 <=1 
C744: x25+x40-y25_40 <=1 
C745: x25+x41-y25_41 <=1 
C746: x25+x42-y25_42 <=1 
C747: x25+x43 <=1 
C748: x25+x44 <=1 
C749: x25+x48-y25_48 <=1 
C750: x25+x49-y25_49 <=1 
C751: x25+x50-y25_50 <=1 
C752: x25+x52 <=1 
C753: x25+x54 <=1 
C754: x25+x55-y25_55 <=1 
C755: x25+x57 <=1 
C756: x25+x59 <=1 
C757: x25+x61 <=1 
C758: x26+x29-y26_29 <=1 
C759: x26+x30-y26_30 <=1 
C760: x26+x31-y26_31 <=1 
C761: x26+x33 <=1 
C762: x26+x34-y26_34 <=1 
C763: x26+x40 <=1 
C764: x26+x41-y26_41 <=1 
C765: x26+x43 <=1 
C766: x26+x44-y26_44 <=1 
C767: x26+x45-y26_45 <=1 
C768: x26+x50 <=1 
C769: x26+x52 <=1 
C770: x26+x54 <=1 
C771: x26+x57 <=1 
C772: x26+x60-y26_60 <=1 
C773: x27+x29 <=1 
C774: x27+x30 <=1 
C775: x27+x31-y27_31 <=1 
C776: x27+x32 <=1 
C777: x27+x34-y27_34 <=1 
C778: x27+x35-y27_35 <=1 
C779: x27+x36-y27_36 <=1 
C780: x27+x38 <=1 
C781: x27+x42-y27_42 <=1 
C782: x27+x43 <=1 
C783: x27+x44 <=1 
C784: x27+x46-y27_46 <=1 
C785: x27+x47-y27_47 <=1 
C786: x27+x48 <=1 
C787: x27+x50 <=1 
C788: x27+x51 <=1 
C789: x27+x53 <=1 
C790: x27+x56-y27_56 <=1 
C791: x27+x57 <=1 
C792: x27+x60-y27_60 <=1 
C793: x28+x31 <=1 
C794: x28+x32-y28_32 <=1 
C795: x28+x36 <=1 
C796: x28+x38-y28_38 <=1 
C797: x28+x39 <=1 
C798: x28+x42-y28_42 <=1 
C799: x28+x43 <=1 
C800: x28+x44-y28_44 <=1 
C801: x28+x45 <=1 
C802: x28+x46 <=1 
C803: x28+x47-y28_47 <=1 
C804: x28+x48 <=1 
C805: x28+x50 <=1 
C806: x28+x51 <=1 
C807: x28+x52-y28_52 <=1 
C808: x28+x53 <=1 
C809: x28+x55 <=1 
C810: x28+x56 <=1 
C811: x28+x57-y28_57 <=1 
C812: x28+x59 <=1 
C813: x28+x60 <=1 
C814: x29+x30-y29_30 <=1 
C815: x29+x31 <=1 
C816: x29+x32-y29_32 <=1 
C817: x29+x33-y29_33 <=1 
C818: x29+x34-y29_34 <=1 
C819: x29+x35 <=1 
C820: x29+x38-y29_38 <=1 
C821: x29+x39 <=1 
C822: x29+x41-y29_41 <=1 
C823: x29+x42-y29_42 <=1 
C824: x29+x44 <=1 
C825: x29+x47-y29_47 <=1 
C826: x29+x49-y29_49 <=1 
C827: x29+x50-y29_50 <=1 
C828: x29+x52-y29_52 <=1 
C829: x29+x54 <=1 
C830: x29+x61 <=1 
C831: x30+x32-y30_32 <=1 
C832: x30+x33-y30_33 <=1 
C833: x30+x35-y30_35 <=1 
C834: x30+x36-y30_36 <=1 
C835: x30+x37 <=1 
C836: x30+x38-y30_38 <=1 
C837: x30+x39-y30_39 <=1 
C838: x30+x40-y30_40 <=1 
C839: x30+x41-y30_41 <=1 
C840: x30+x45-y30_45 <=1 
C841: x30+x47-y30_47 <=1 
C842: x30+x48-y30_48 <=1 
C843: x30+x51 <=1 
C844: x30+x52 <=1 
C845: x30+x54-y30_54 <=1 
C846: x30+x55 <=1 
C847: x30+x56 <=1 
C848: x30+x57 <=1 
C849: x30+x58-y30_58 <=1 
C850: x30+x59 <=1 
C851: x30+x60-y30_60 <=1 
C852: x30+x61 <=1 
C853: x31+x33-y31_33 <=1 
C854: x31+x38-y31_38 <=1 
C855: x31+x40-y31_40 <=1 
C856: x31+x42 <=1 
C857: x31+x46-y31_46 <=1 
C858: x31+x47-y31_47 <=1 
C859: x31+x48-y31_48 <=1 
C860: x31+x50 <=1 
C861: x31+x51-y31_51 <=1 
C862: x31+x52 <=1 
C863: x31+x53-y31_53 <=1 
C864: x31+x56-y31_56 <=1 
C865: x31+x57-y31_57 <=1 
C866: x31+x58-y31_58 <=1 
C867: x31+x60-y31_60 <=1 
C868: x31+x61-y31_61 <=1 
C869: x32+x33-y32_33 <=1 
C870: x32+x34-y32_34 <=1 
C871: x32+x39 <=1 
C872: x32+x40-y32_40 <=1 
C873: x32+x42-y32_42 <=1 
C874: x32+x43-y32_43 <=1 
C875: x32+x46-y32_46 <=1 
C876: x32+x51 <=1 
C877: x32+x52 <=1 
C878: x32+x54-y32_54 <=1 
C879: x32+x56-y32_56 <=1 
C880: x32+x57 <=1 
C881: x32+x58-y32_58 <=1 
C882: x32+x59 <=1 
C883: x32+x60-y32_60 <=1 
C884: x33+x34 <=1 
C885: x33+x35 <=1 
C886: x33+x37-y33_37 <=1 
C887: x33+x38-y33_38 <=1 
C888: x33+x39 <=1 
C889: x33+x40-y33_40 <=1 
C890: x33+x42 <=1 
C891: x33+x43 <=1 
C892: x33+x44 <=1 
C893: x33+x46-y33_46 <=1 
C894: x33+x47 <=1 
C895: x33+x49-y33_49 <=1 
C896: x33+x51 <=1 
C897: x33+x52 <=1 
C898: x33+x53 <=1 
C899: x33+x54-y33_54 <=1 
C900: x33+x55 <=1 
C901: x33+x56 <=1 
C902: x33+x57 <=1 
C903: x33+x58-y33_58 <=1 
C904: x33+x60 <=1 
C905: x34+x36-y34_36 <=1 
C906: x34+x37-y34_37 <=1 
C907: x34+x39 <=1 
C908: x34+x40-y34_40 <=1 
C909: x34+x42-y34_42 <=1 
C910: x34+x44-y34_44 <=1 
C911: x34+x45 <=1 
C912: x34+x46 <=1 
C913: x34+x47-y34_47 <=1 
C914: x34+x48-y34_48 <=1 
C915: x34+x49-y34_49 <=1 
C916: x34+x51-y34_51 <=1 
C917: x34+x52-y34_52 <=1 
C918: x34+x53 <=1 
C919: x34+x54 <=1 
C920: x34+x56 <=1 
C921: x34+x57 <=1 
C922: x34+x58 <=1 
C923: x34+x59-y34_59 <=1 
C924: x35+x38-y35_38 <=1 
C925: x35+x39-y35_39 <=1 
C926: x35+x41-y35_41 <=1 
C927: x35+x43 <=1 
C928: x35+x46 <=1 
C929: x35+x50-y35_50 <=1 
C930: x35+x51-y35_51 <=1 
C931: x35+x52 <=1 
C932: x35+x55 <=1 
C933: x35+x56 <=1 
C934: x35+x57-y35_57 <=1 
C935: x35+x58 <=1 
C936: x35+x59-y35_59 <=1 
C937: x35+x60-y35_60 <=1 
C938: x36+x38 <=1 
C939: x36+x41 <=1 
C940: x36+x44-y36_44 <=1 
C941: x36+x45-y36_45 <=1 
C942: x36+x46 <=1 
C943: x36+x47 <=1 
C944: x36+x48 <=1 
C945: x36+x49-y36_49 <=1 
C946: x36+x51 <=1 
C947: x36+x55 <=1 
C948: x36+x57-y36_57 <=1 
C949: x36+x58 <=1 
C950: x36+x59-y36_59 <=1 
C951: x37+x38-y37_38 <=1 
C952: x37+x40-y37_40 <=1 
C953: x37+x41-y37_41 <=1 
C954: x37+x42-y37_42 <=1 
C955: x37+x43-y37_43 <=1 
C956: x37+x44 <=1 
C957: x37+x45-y37_45 <=1 
C958: x37+x46 <=1 
C959: x37+x49 <=1 
C960: x37+x50 <=1 
C961: x37+x51-y37_51 <=1 
C962: x37+x52-y37_52 <=1 
C963: x37+x55 <=1 
C964: x37+x57 <=1 
C965: x37+x58-y37_58 <=1 
C966: x37+x59-y37_59 <=1 
C967: x37+x60-y37_60 <=1 
C968: x38+x39 <=1 
C969: x38+x40-y38_40 <=1 
C970: x38+x41-y38_41 <=1 
C971: x38+x43-y38_43 <=1 
C972: x38+x44-y38_44 <=1 
C973: x38+x45 <=1 
C974: x38+x48-y38_48 <=1 
C975: x38+x50-y38_50 <=1 
C976: x38+x51-y38_51 <=1 
C977: x38+x52 <=1 
C978: x38+x54 <=1 
C979: x38+x56 <=1 
C980: x38+x57-y38_57 <=1 
C981: x38+x60-y38_60 <=1 
C982: x39+x40 <=1 
C983: x39+x41-y39_41 <=1 
C984: x39+x42 <=1 
C985: x39+x43-y39_43 <=1 
C986: x39+x44 <=1 
C987: x39+x45-y39_45 <=1 
C988: x39+x46 <=1 
C989: x39+x47-y39_47 <=1 
C990: x39+x51-y39_51 <=1 
C991: x39+x52 <=1 
C992: x39+x54-y39_54 <=1 
C993: x39+x56 <=1 
C994: x39+x61-y39_61 <=1 
C995: x40+x41 <=1 
C996: x40+x42-y40_42 <=1 
C997: x40+x43-y40_43 <=1 
C998: x40+x48 <=1 
C999: x40+x49 <=1 
C1000: x40+x50-y40_50 <=1 
C1001: x40+x51-y40_51 <=1 
C1002: x40+x52-y40_52 <=1 
C1003: x40+x53-y40_53 <=1 
C1004: x40+x55-y40_55 <=1 
C1005: x40+x59-y40_59 <=1 
C1006: x40+x60-y40_60 <=1 
C1007: x41+x44 <=1 
C1008: x41+x47 <=1 
C1009: x41+x48-y41_48 <=1 
C1010: x41+x49 <=1 
C1011: x41+x50-y41_50 <=1 
C1012: x41+x51 <=1 
C1013: x41+x60 <=1 
C1014: x41+x61-y41_61 <=1 
C1015: x42+x44 <=1 
C1016: x42+x45 <=1 
C1017: x42+x46 <=1 
C1018: x42+x48-y42_48 <=1 
C1019: x42+x49-y42_49 <=1 
C1020: x42+x50 <=1 
C1021: x42+x51 <=1 
C1022: x42+x54 <=1 
C1023: x42+x59 <=1 
C1024: x42+x60 <=1 
C1025: x42+x61 <=1 
C1026: x43+x45-y43_45 <=1 
C1027: x43+x46-y43_46 <=1 
C1028: x43+x47 <=1 
C1029: x43+x49 <=1 
C1030: x43+x50-y43_50 <=1 
C1031: x43+x51 <=1 
C1032: x43+x53 <=1 
C1033: x43+x54-y43_54 <=1 
C1034: x43+x55 <=1 
C1035: x43+x56-y43_56 <=1 
C1036: x43+x58 <=1 
C1037: x43+x60 <=1 
C1038: x43+x61-y43_61 <=1 
C1039: x44+x45-y44_45 <=1 
C1040: x44+x46-y44_46 <=1 
C1041: x44+x47 <=1 
C1042: x44+x48 <=1 
C1043: x44+x49 <=1 
C1044: x44+x50 <=1 
C1045: x44+x51 <=1 
C1046: x44+x52-y44_52 <=1 
C1047: x44+x53-y44_53 <=1 
C1048: x44+x55 <=1 
C1049: x44+x56-y44_56 <=1 
C1050: x44+x61 <=1 
C1051: x45+x48-y45_48 <=1 
C1052: x45+x49 <=1 
C1053: x45+x50 <=1 
C1054: x45+x53 <=1 
C1055: x45+x54 <=1 
C1056: x45+x55-y45_55 <=1 
C1057: x45+x56 <=1 
C1058: x45+x58-y45_58 <=1 
C1059: x45+x59 <=1 
C1060: x45+x60 <=1 
C1061: x45+x61-y45_61 <=1 
C1062: x46+x48 <=1 
C1063: x46+x49 <=1 
C1064: x46+x50-y46_50 <=1 
C1065: x46+x51-y46_51 <=1 
C1066: x46+x53 <=1 
C1067: x46+x54 <=1 
C1068: x46+x55 <=1 
C1069: x46+x57-y46_57 <=1 
C1070: x46+x58-y46_58 <=1 
C1071: x46+x59 <=1 
C1072: x47+x49 <=1 
C1073: x47+x50 <=1 
C1074: x47+x51-y47_51 <=1 
C1075: x47+x52-y47_52 <=1 
C1076: x47+x55-y47_55 <=1 
C1077: x47+x57-y47_57 <=1 
C1078: x47+x58 <=1 
C1079: x47+x59 <=1 
C1080: x48+x49-y48_49 <=1 
C1081: x48+x50-y48_50 <=1 
C1082: x48+x51 <=1 
C1083: x48+x52-y48_52 <=1 
C1084: x48+x54-y48_54 <=1 
C1085: x48+x57 <=1 
C1086: x48+x58 <=1 
C1087: x48+x60 <=1 
C1088: x48+x61-y48_61 <=1 
C1089: x49+x51-y49_51 <=1 
C1090: x49+x52 <=1 
C1091: x49+x54-y49_54 <=1 
C1092: x49+x55 <=1 
C1093: x49+x56-y49_56 <=1 
C1094: x49+x58 <=1 
C1095: x49+x59-y49_59 <=1 
C1096: x49+x61-y49_61 <=1 
C1097: x50+x51-y50_51 <=1 
C1098: x50+x53 <=1 
C1099: x50+x55-y50_55 <=1 
C1100: x50+x56-y50_56 <=1 
C1101: x50+x58 <=1 
C1102: x50+x60 <=1 
C1103: x50+x61 <=1 
C1104: x51+x52-y51_52 <=1 
C1105: x51+x54 <=1 
C1106: x51+x55 <=1 
C1107: x51+x56 <=1 
C1108: x51+x57-y51_57 <=1 
C1109: x51+x58 <=1 
C1110: x51+x61-y51_61 <=1 
C1111: x52+x53 <=1 
C1112: x52+x54-y52_54 <=1 
C1113: x52+x57-y52_57 <=1 
C1114: x52+x60-y52_60 <=1 
C1115: x53+x55-y53_55 <=1 
C1116: x53+x56-y53_56 <=1 
C1117: x53+x59-y53_59 <=1 
C1118: x53+x60 <=1 
C1119: x53+x61-y53_61 <=1 
C1120: x54+x55 <=1 
C1121: x54+x56 <=1 
C1122: x54+x58-y54_58 <=1 
C1123: x54+x59 <=1 
C1124: x54+x60 <=1 
C1125: x54+x61-y54_61 <=1 
C1126: x55+x56-y55_56 <=1 
C1127: x55+x57 <=1 
C1128: x55+x59 <=1 
C1129: x55+x60-y55_60 <=1 
C1130: x56+x57-y56_57 <=1 
C1131: x56+x58-y56_58 <=1 
C1132: x56+x59-y56_59 <=1 
C1133: x56+x60-y56_60 <=1 
C1134: x57+x59 <=1 
C1135: x59+x60 <=1 
C1136: x59+x61-y59_61 <=1 
C1137: x60+x61-y60_61 <=1 

binary
x0
x1
x2
x3
x4
x5
x6
x7
x8
x9
x10
x11
x12
x13
x14
x15
x16
x17
x18
x19
x20
x21
x22
x23
x24
x25
x26
x27
x28
x29
x30
x31
x32
x33
x34
x35
x36
x37
x38
x39
x40
x41
x42
x43
x44
x45
x46
x47
x48
x49
x50
x51
x52
x53
x54
x55
x56
x57
x58
x59
x60
x61
