problem_generation/data/GISP/train/er_n=62_m=1137_p=0.60_SET2_setparam=100.00_alpha=0.50_308.sol
objective value:                                 1181
x14                                                 1 	(obj:100)
x22                                                 1 	(obj:100)
x24                                                 1 	(obj:100)
x31                                                 1 	(obj:100)
x32                                                 1 	(obj:100)
x35                                                 1 	(obj:100)
x37                                                 1 	(obj:100)
x38                                                 1 	(obj:100)
x41                                                 1 	(obj:100)
x48                                                 1 	(obj:100)
x53                                                 1 	(obj:100)
x61                                                 1 	(obj:100)
y14_24                                              1 	(obj:-1)
y14_37                                              1 	(obj:-1)
y31_53                                              1 	(obj:-1)
y35_41                                              1 	(obj:-1)
y31_48                                              1 	(obj:-1)
y31_61                                              1 	(obj:-1)
y31_38                                              1 	(obj:-1)
y38_41                                              1 	(obj:-1)
y53_61                                              1 	(obj:-1)
y37_38                                              1 	(obj:-1)
y48_61                                              1 	(obj:-1)
y22_35                                              1 	(obj:-1)
y22_53                                              1 	(obj:-1)
y35_38                                              1 	(obj:-1)
y38_48                                              1 	(obj:-1)
y22_48                                              1 	(obj:-1)
y41_48                                              1 	(obj:-1)
y37_41                                              1 	(obj:-1)
y41_61                                              1 	(obj:-1)
